Route #1: 1 20 25 44 27 55 53 51 17 2
Route #2: 1 8 32 19 54 3 65 62 22 56 15 26
Route #3: 1 29 35 28 66 48 5 61
Route #4: 1 43 58 12 64 33 18 11 38
Route #5: 1 59 67 13 23 30 41 39 60 21 42
Route #6: 1 68 34 50 10 31 16 4 52 7 14
Route #7: 1 24 45 36 46
Route #8: 1 63 57 40 9 69
Route #9: 1 49 37 47 6
cost 1403
